
Gurobi 7.5.2 (linux64) logging started Sat Jun 23 16:25:59 2018

Changed value of parameter LogFile to result/ilp/simNo_5-n_100-m_40-s_7-minVAF_0.05-cov_2000-k_1-fn_0.15-fp_0.0001-na_0.15.ILP.gurobiSolverLog
   Prev: gurobi.log  Default: 
Changed value of parameter TimeLimit to 86400.0
   Prev: 1e+100  Min: 0.0  Max: 1e+100  Default: 1e+100
Optimize a model with 1265601 rows, 330440 columns and 3489120 nonzeros
Variable types: 0 continuous, 330440 integer (330440 binary)
Coefficient statistics:
  Matrix range     [9e-04, 2e+00]
  Objective range  [2e+00, 2e+01]
  Bounds range     [1e+00, 1e+00]
  RHS range        [9e-02, 2e+00]
Found heuristic solution: objective -6690.351417
Presolve removed 391341 rows and 226881 columns (presolve time = 5s) ...
Presolve removed 392323 rows and 226881 columns (presolve time = 10s) ...
Presolve removed 392478 rows and 226881 columns (presolve time = 15s) ...
Presolve removed 392478 rows and 226881 columns (presolve time = 21s) ...
Presolve removed 392478 rows and 226881 columns (presolve time = 31s) ...
Presolve removed 392478 rows and 226881 columns
Presolve time: 32.68s
Presolved: 873123 rows, 103559 columns, 2432694 nonzeros
Variable types: 0 continuous, 103559 integer (103559 binary)
Presolved: 103559 rows, 976682 columns, 2536253 nonzeros

Presolve removed 103559 rows and 976682 columns

Root simplex log...

Iteration    Objective       Primal Inf.    Dual Inf.      Time
       0    1.5874829e+01   0.000000e+00   5.188200e+04     43s
    7171   -9.5765446e+01   0.000000e+00   0.000000e+00     45s
    7171   -9.5765446e+01   0.000000e+00   0.000000e+00     49s

Root relaxation: objective -9.576545e+01, 7171 iterations, 13.06 seconds
Total elapsed time = 63.47s
Total elapsed time = 74.60s

    Nodes    |    Current Node    |     Objective Bounds      |     Work
 Expl Unexpl |  Obj  Depth IntInf | Incumbent    BestBd   Gap | It/Node Time

     0     0  -95.76545    0  319 -6690.3514  -95.76545  98.6%     -   82s
H    0     0                    -111.8807591  -95.76545  14.4%     -   94s
     0     0  -98.68969    0  260 -111.88076  -98.68969  11.8%     -  110s
     0     0 -100.49680    0  194 -111.88076 -100.49680  10.2%     -  136s
     0     0 -101.26865    0  146 -111.88076 -101.26865  9.49%     -  152s
     0     0 -101.52285    0  208 -111.88076 -101.52285  9.26%     -  165s
     0     0 -101.52285    0  208 -111.88076 -101.52285  9.26%     -  172s
     0     0 -102.04049    0  105 -111.88076 -102.04049  8.80%     -  181s
     0     0 -102.61231    0  167 -111.88076 -102.61231  8.28%     -  194s
     0     0 -102.71232    0  176 -111.88076 -102.71232  8.19%     -  207s
     0     0 -102.93855    0  312 -111.88076 -102.93855  7.99%     -  218s
     0     0 -102.97530    0  314 -111.88076 -102.97530  7.96%     -  232s
     0     0 -102.97530    0  314 -111.88076 -102.97530  7.96%     -  239s
     0     0 -103.13868    0  246 -111.88076 -103.13868  7.81%     -  273s
     0     0 -103.13868    0  199 -111.88076 -103.13868  7.81%     - 2047s
     0     0 -103.13868    0  124 -111.88076 -103.13868  7.81%     - 2049s
     0     0 -103.13868    0   92 -111.88076 -103.13868  7.81%     - 2049s
     0     0 -103.28306    0  127 -111.88076 -103.28306  7.68%     - 2050s
     0     0 -103.87009    0  112 -111.88076 -103.87009  7.16%     - 2051s
     0     0 -103.87009    0  110 -111.88076 -103.87009  7.16%     - 2052s
     0     0 -104.57006    0  108 -111.88076 -104.57006  6.53%     - 2052s
     0     0 -104.57830    0  108 -111.88076 -104.57830  6.53%     - 2054s
     0     0 -104.57830    0  108 -111.88076 -104.57830  6.53%     - 2054s
     0     0 -104.96234    0  119 -111.88076 -104.96234  6.18%     - 2055s
     0     0 -105.01543    0  122 -111.88076 -105.01543  6.14%     - 2056s
     0     0 -105.04768    0  109 -111.88076 -105.04768  6.11%     - 2056s
     0     0 -106.26427    0  101 -111.88076 -106.26427  5.02%     - 2057s
     0     0 -106.26427    0  106 -111.88076 -106.26427  5.02%     - 2058s
     0     0 -106.39707    0   98 -111.88076 -106.39707  4.90%     - 2058s
     0     0 -106.39707    0   98 -111.88076 -106.39707  4.90%     - 2059s
     0     0 -106.47152    0   98 -111.88076 -106.47152  4.83%     - 2059s
     0     0 -106.60488    0  114 -111.88076 -106.60488  4.72%     - 2060s
     0     0 -106.72647    0   99 -111.88076 -106.72647  4.61%     - 2060s
     0     0 -106.72647    0  101 -111.88076 -106.72647  4.61%     - 2061s
     0     0 -107.09592    0   93 -111.88076 -107.09592  4.28%     - 2061s
     0     0 -107.09592    0   95 -111.88076 -107.09592  4.28%     - 2062s
     0     0 -107.24337    0   95 -111.88076 -107.24337  4.14%     - 2062s
     0     0 -107.25019    0   97 -111.88076 -107.25019  4.14%     - 2063s
     0     0 -107.29849    0   94 -111.88076 -107.29849  4.10%     - 2063s
     0     0 -107.35746    0  114 -111.88076 -107.35746  4.04%     - 2064s
     0     0 -107.37883    0   92 -111.88076 -107.37883  4.02%     - 2064s
     0     0 -107.40746    0  114 -111.88076 -107.40746  4.00%     - 2065s
     0     0 -107.44027    0  117 -111.88076 -107.44027  3.97%     - 2066s
     0     0 -107.44027    0  117 -111.88076 -107.44027  3.97%     - 2066s
     0     0 -108.01521    0   95 -111.88076 -108.01521  3.46%     - 2067s
     0     0 -108.01521    0   97 -111.88076 -108.01521  3.46%     - 2067s
     0     0 -108.29783    0  113 -111.88076 -108.29783  3.20%     - 2068s
     0     0 -108.38678    0  128 -111.88076 -108.38678  3.12%     - 2069s
     0     0 -108.44396    0  129 -111.88076 -108.44396  3.07%     - 2069s
     0     0 -108.44396    0  129 -111.88076 -108.44396  3.07%     - 2070s
     0     0 -108.44396    0  130 -111.88076 -108.44396  3.07%     - 2070s
     0     0 -108.87086    0   97 -111.88076 -108.87086  2.69%     - 2071s
     0     0 -108.87086    0   97 -111.88076 -108.87086  2.69%     - 2072s
     0     0 -108.87086    0   97 -111.88076 -108.87086  2.69%     - 2073s
     0     0 -108.87086    0   97 -111.88076 -108.87086  2.69%     - 2073s
     0     0 -108.87086    0   97 -111.88076 -108.87086  2.69%     - 2074s
     0     0 -108.87086    0   96 -111.88076 -108.87086  2.69%     - 2075s
     0     0 -108.87086    0   97 -111.88076 -108.87086  2.69%     - 2076s
     0     0 -108.87086    0   97 -111.88076 -108.87086  2.69%     - 2081s
     0     0 -108.87086    0  190 -111.88076 -108.87086  2.69%     - 2088s
     0     0 -108.87086    0   89 -111.88076 -108.87086  2.69%     - 2089s
     0     0 -108.87086    0   85 -111.88076 -108.87086  2.69%     - 2089s
     0     0 -108.87086    0  120 -111.88076 -108.87086  2.69%     - 2089s
     0     0 -108.87086    0  132 -111.88076 -108.87086  2.69%     - 2089s
     0     0 -108.87086    0  118 -111.88076 -108.87086  2.69%     - 2089s
     0     0 -108.87086    0   97 -111.88076 -108.87086  2.69%     - 2089s
     0     0 -108.87947    0   96 -111.88076 -108.87947  2.68%     - 2089s
     0     0 -108.87947    0   95 -111.88076 -108.87947  2.68%     - 2090s
     0     0 -108.87947    0   96 -111.88076 -108.87947  2.68%     - 2090s
     0     0 -108.88193    0   96 -111.88076 -108.88193  2.68%     - 2090s
     0     0 -108.88193    0   96 -111.88076 -108.88193  2.68%     - 2090s
     0     0 -108.88193    0   96 -111.88076 -108.88193  2.68%     - 2092s
     0     2 -108.88193    0   96 -111.88076 -108.88193  2.68%     - 2093s

Cutting planes:
  Gomory: 12
  Zero half: 45

Explored 18 nodes (21475 simplex iterations) in 2094.23 seconds
Thread count was 1 (of 80 available processors)

Solution count 4: -111.881 -111.881 -111.881 -6690.35 

Optimal solution found (tolerance 1.00e-04)
Best objective -1.118807590792e+02, best bound -1.118807590792e+02, gap 0.0000%
